41 373
2 3 5 6 8 15 19 21 23 24 25 26 28 29 31 34 35 38 39
3 4 7 10 12 13 14 15 19 21 22 23 28 29 31 32 33 34 36 38 40
0 4 9 11 13 15 16 17 19 20 22 28 29 31 32 35 39 40
0 1 6 9 13 14 15 16 20 21 22 23 29 30 34 36 37 40
1 2 5 8 11 13 17 20 26 27 28 31 32 33 34 36 37
0 4 6 9 10 14 15 16 17 20 21 23 24 25 26 27 30 34 40
0 3 5 8 9 11 13 14 18 19 21 24 28 32 35 36 39
1 9 10 13 14 17 19 20 23 26 29 34
0 4 6 13 16 19 22 23 26 30 38 39 40
2 3 5 6 7 10 11 12 15 18 19 20 21 22 25 29 31 35
1 5 7 9 12 15 16 17 21 23 26 27 28 30 33 35 37 39
2 4 6 9 13 20 22 23 24 25 28 29 32 36 39 40
1 9 10 17 18 22 23 24 26 28 32 33 34 36 37
1 2 3 4 6 7 8 11 14 15 18 20 21 22 24 27 29 30 31 33 38 39 40
1 3 5 6 7 13 17 23 24 25 26 27 29 32 33 35 37 39 40
0 1 2 3 5 9 10 13 16 17 19 22 25 28 29 30 31 32 33 34 38 39 40
2 3 5 8 10 15 17 19 20 22 24 26 27 28 31 33 34 36 38 40
2 4 5 7 10 12 14 15 16 19 21 22 24 25 27 29 34 35 39
6 9 12 13 19 23 26 29 31 32 33 34 38 40
0 1 2 6 7 8 9 15 16 17 18 21 22 24 28 30 32 33 34 35 37 38 40
2 3 4 5 7 9 11 13 16 25 26 27 31 32 36 39 40
0 1 3 5 6 9 10 13 17 19 23 24 27 28 31 33 34 37 40
1 2 3 8 9 11 12 13 15 16 17 19 24 26 28 30 31 32 33 34 37 38
0 1 3 5 7 8 10 11 12 14 18 21 25 26 27 29 31 34 36 37 38
0 5 6 11 12 13 14 16 17 19 21 22 27 28 31 32 35 38
0 5 9 11 14 15 17 20 23 27 28 30 31 33 34 35 38
0 4 5 7 8 10 12 14 16 18 20 22 23 29 30 31 35 36 37 38 40
4 5 10 13 14 16 17 20 21 23 24 25 28 29 32 33 34 35 39 40
0 1 2 4 6 10 11 12 15 16 19 21 22 24 25 27 32 35 37 38 40
0 1 2 3 7 9 11 13 14 15 17 18 23 26 27 32 36 37 39
3 5 8 10 13 15 19 22 25 26 31 32 38
0 1 2 4 9 13 15 16 18 20 21 22 23 24 25 26 30 33 34 35 37 39 40
1 2 4 6 11 12 14 15 18 19 20 22 24 27 28 29 30 36 37 39
1 4 10 12 13 14 15 16 18 19 21 22 25 27 31 37
0 1 3 4 5 7 12 15 16 17 18 19 21 22 23 25 27 31 35 36 39
0 2 6 9 10 14 17 19 24 25 26 27 28 31 34 40
1 3 4 6 11 12 16 20 23 26 29 32 34
3 4 10 12 14 19 21 22 23 26 28 29 31 32 33
0 1 8 13 15 16 18 19 22 23 24 25 26 28 30 39
0 2 6 8 10 11 13 14 15 17 20 27 29 31 32 34 38
1 2 3 5 8 11 13 14 15 16 18 19 20 21 26 27 28 31 35
